//Implementando a funcao objetivo
max: 44982.6629 +-0.4y[1][1] +-0.35y[1][2] +-0.25y[1][3] +-0.15y[1][4] +0y[1][5] +0.15y[1][6] +0.25y[1][7] +0.35y[1][8] +0.4y[1][9]+70917.3864 +-0.4y[2][1] +-0.35y[2][2] +-0.25y[2][3] +-0.15y[2][4] +0y[2][5] +0.15y[2][6] +0.25y[2][7] +0.35y[2][8] +0.4y[2][9]+20125.4038 +-0.4y[3][1] +-0.35y[3][2] +-0.25y[3][3] +-0.15y[3][4] +0y[3][5] +0.15y[3][6] +0.25y[3][7] +0.35y[3][8] +0.4y[3][9]+30803.3138 +-0.4y[4][1] +-0.35y[4][2] +-0.25y[4][3] +-0.15y[4][4] +0y[4][5] +0.15y[4][6] +0.25y[4][7] +0.35y[4][8] +0.4y[4][9]+23077.5653 +-1384.6539y[5][1] +-1269.2661y[5][2] +-1038.4904y[5][3] +-692.327y[5][4] +0y[5][5] +692.327y[5][6] +1038.4904y[5][7] +1269.2661y[5][8] +1384.6539y[5][9]+28720.088 +-0.4y[6][1] +-0.35y[6][2] +-0.25y[6][3] +-0.15y[6][4] +0y[6][5] +0.15y[6][6] +0.25y[6][7] +0.35y[6][8] +0.4y[6][9]+89376.3129 +-0.225y[7][1] +-0.2y[7][2] +-0.16y[7][3] +-0.09y[7][4] +0y[7][5] +0.09y[7][6] +0.16y[7][7] +0.2y[7][8] +0.225y[7][9]+77410.6982 +-4644.6419y[8][1] +-4257.5884y[8][2] +-3483.4814y[8][3] +-2322.3209y[8][4] +0y[8][5] +2322.3209y[8][6] +3483.4814y[8][7] +4257.5884y[8][8] +4644.6419y[8][9]+52992.128 +-0.225y[9][1] +-0.2y[9][2] +-0.16y[9][3] +-0.09y[9][4] +0y[9][5] +0.09y[9][6] +0.16y[9][7] +0.2y[9][8] +0.225y[9][9] +48870.471 +-7294.1002y[1][1] +-5470.5751y[1][2] +-3647.0501y[1][3] +-1823.525y[1][4] +0y[1][5] +1823.525y[1][6] +3647.0501y[1][7] +5470.5751y[1][8] +7294.1002y[1][9] +41055.1964 +-5865.0281y[2][1] +-4398.771y[2][2] +-2932.514y[2][3] +-1466.257y[2][4] +0y[2][5] +1466.257y[2][6] +2932.514y[2][7] +4398.771y[2][8] +5865.0281y[2][9] +23894.0291 +-5309.7842y[3][1] +-3982.3382y[3][2] +-2654.8921y[3][3] +-1327.4461y[3][4] +0y[3][5] +1327.4461y[3][6] +2654.8921y[3][7] +3982.3382y[3][8] +5309.7842y[3][9] +14399.1368 +-4799.7123y[4][1] +-3599.7842y[4][2] +-2399.8561y[4][3] +-1199.9281y[4][4] +0y[4][5] +1199.9281y[4][6] +2399.8561y[4][7] +3599.7842y[4][8] +4799.7123y[4][9] +32892.1568 +-6578.4314y[5][1] +-4933.8235y[5][2] +-3289.2157y[5][3] +-1644.6078y[5][4] +0y[5][5] +1644.6078y[5][6] +3289.2157y[5][7] +4933.8235y[5][8] +6578.4314y[5][9] +6423.127 +-3568.4039y[6][1] +-2676.3029y[6][2] +-1784.2019y[6][3] +-892.101y[6][4] +0y[6][5] +892.101y[6][6] +1784.2019y[6][7] +2676.3029y[6][8] +3568.4039y[6][9] +16693.3905 +-4637.0529y[7][1] +-3477.7897y[7][2] +-2318.5265y[7][3] +-1159.2632y[7][4] +0y[7][5] +1159.2632y[7][6] +2318.5265y[7][7] +3477.7897y[7][8] +4637.0529y[7][9] +29178.9077 +-6078.9391y[8][1] +-4559.2043y[8][2] +-3039.4696y[8][3] +-1519.7348y[8][4] +0y[8][5] +1519.7348y[8][6] +3039.4696y[8][7] +4559.2043y[8][8] +6078.9391y[8][9] +4650.9222 +-3875.7685y[9][1] +-2906.8264y[9][2] +-1937.8843y[9][3] +-968.9421y[9][4] +0y[9][5] +968.9421y[9][6] +1937.8843y[9][7] +2906.8264y[9][8] +3875.7685y[9][9];

//Implementa Restricoes para y_ij unitarios
y[1][1] +y[1][2] +y[1][3] +y[1][4] +y[1][5] +y[1][6] +y[1][7] +y[1][8] +y[1][9]>=1;
y[2][1] +y[2][2] +y[2][3] +y[2][4] +y[2][5] +y[2][6] +y[2][7] +y[2][8] +y[2][9]>=1;
y[3][1] +y[3][2] +y[3][3] +y[3][4] +y[3][5] +y[3][6] +y[3][7] +y[3][8] +y[3][9]>=1;
y[4][1] +y[4][2] +y[4][3] +y[4][4] +y[4][5] +y[4][6] +y[4][7] +y[4][8] +y[4][9]>=1;
y[5][1] +y[5][2] +y[5][3] +y[5][4] +y[5][5] +y[5][6] +y[5][7] +y[5][8] +y[5][9]>=1;
y[6][1] +y[6][2] +y[6][3] +y[6][4] +y[6][5] +y[6][6] +y[6][7] +y[6][8] +y[6][9]>=1;
y[7][1] +y[7][2] +y[7][3] +y[7][4] +y[7][5] +y[7][6] +y[7][7] +y[7][8] +y[7][9]>=1;
y[8][1] +y[8][2] +y[8][3] +y[8][4] +y[8][5] +y[8][6] +y[8][7] +y[8][8] +y[8][9]>=1;
y[9][1] +y[9][2] +y[9][3] +y[9][4] +y[9][5] +y[9][6] +y[9][7] +y[9][8] +y[9][9]>=1;

y[1][1] +y[1][2] +y[1][3] +y[1][4] +y[1][5] +y[1][6] +y[1][7] +y[1][8] +y[1][9]<=1;
y[2][1] +y[2][2] +y[2][3] +y[2][4] +y[2][5] +y[2][6] +y[2][7] +y[2][8] +y[2][9]<=1;
y[3][1] +y[3][2] +y[3][3] +y[3][4] +y[3][5] +y[3][6] +y[3][7] +y[3][8] +y[3][9]<=1;
y[4][1] +y[4][2] +y[4][3] +y[4][4] +y[4][5] +y[4][6] +y[4][7] +y[4][8] +y[4][9]<=1;
y[5][1] +y[5][2] +y[5][3] +y[5][4] +y[5][5] +y[5][6] +y[5][7] +y[5][8] +y[5][9]<=1;
y[6][1] +y[6][2] +y[6][3] +y[6][4] +y[6][5] +y[6][6] +y[6][7] +y[6][8] +y[6][9]<=1;
y[7][1] +y[7][2] +y[7][3] +y[7][4] +y[7][5] +y[7][6] +y[7][7] +y[7][8] +y[7][9]<=1;
y[8][1] +y[8][2] +y[8][3] +y[8][4] +y[8][5] +y[8][6] +y[8][7] +y[8][8] +y[8][9]<=1;
y[9][1] +y[9][2] +y[9][3] +y[9][4] +y[9][5] +y[9][6] +y[9][7] +y[9][8] +y[9][9]<=1;

//Implementa Restricoes para um modulo por categoria
3 +-2y[1][1]>=1;
3 +-1.5y[1][2]>=1;
3 +-1y[1][3]>=1;
3 +-0.5y[1][4]>=1;
3 +0y[1][5]>=1;
3 +0.5y[1][6]>=1;
3 +1y[1][7]>=1;
3 +1.5y[1][8]>=1;
3 +2y[1][9]>=1;
3 +-2y[2][1]>=1;
3 +-1.5y[2][2]>=1;
3 +-1y[2][3]>=1;
3 +-0.5y[2][4]>=1;
3 +0y[2][5]>=1;
3 +0.5y[2][6]>=1;
3 +1y[2][7]>=1;
3 +1.5y[2][8]>=1;
3 +2y[2][9]>=1;
2 +-2y[3][1]>=1;
2 +-1.5y[3][2]>=1;
2 +-1y[3][3]>=1;
2 +-0.5y[3][4]>=1;
2 +0y[3][5]>=1;
2 +0.5y[3][6]>=1;
2 +1y[3][7]>=1;
2 +1.5y[3][8]>=1;
2 +2y[3][9]>=1;
3 +-2y[4][1]>=1;
3 +-1.5y[4][2]>=1;
3 +-1y[4][3]>=1;
3 +-0.5y[4][4]>=1;
3 +0y[4][5]>=1;
3 +0.5y[4][6]>=1;
3 +1y[4][7]>=1;
3 +1.5y[4][8]>=1;
3 +2y[4][9]>=1;
7 +-2y[5][1]>=1;
7 +-1.5y[5][2]>=1;
7 +-1y[5][3]>=1;
7 +-0.5y[5][4]>=1;
7 +0y[5][5]>=1;
7 +0.5y[5][6]>=1;
7 +1y[5][7]>=1;
7 +1.5y[5][8]>=1;
7 +2y[5][9]>=1;
2 +-2y[6][1]>=1;
2 +-1.5y[6][2]>=1;
2 +-1y[6][3]>=1;
2 +-0.5y[6][4]>=1;
2 +0y[6][5]>=1;
2 +0.5y[6][6]>=1;
2 +1y[6][7]>=1;
2 +1.5y[6][8]>=1;
2 +2y[6][9]>=1;
6 +-2y[7][1]>=1;
6 +-1.5y[7][2]>=1;
6 +-1y[7][3]>=1;
6 +-0.5y[7][4]>=1;
6 +0y[7][5]>=1;
6 +0.5y[7][6]>=1;
6 +1y[7][7]>=1;
6 +1.5y[7][8]>=1;
6 +2y[7][9]>=1;
10 +-2y[8][1]>=1;
10 +-1.5y[8][2]>=1;
10 +-1y[8][3]>=1;
10 +-0.5y[8][4]>=1;
10 +0y[8][5]>=1;
10 +0.5y[8][6]>=1;
10 +1y[8][7]>=1;
10 +1.5y[8][8]>=1;
10 +2y[8][9]>=1;
6 +-2y[9][1]>=1;
6 +-1.5y[9][2]>=1;
6 +-1y[9][3]>=1;
6 +-0.5y[9][4]>=1;
6 +0y[9][5]>=1;
6 +0.5y[9][6]>=1;
6 +1y[9][7]>=1;
6 +1.5y[9][8]>=1;
6 +2y[9][9]>=1;

//Implementa restricao de draw positivo
0.067 +-0.01y[1][1]>=0;
0.067 +-0.0075y[1][2]>=0;
0.067 +-0.005y[1][3]>=0;
0.067 +-0.0025y[1][4]>=0;
0.067 +0y[1][5]>=0;
0.067 +0.0025y[1][6]>=0;
0.067 +0.005y[1][7]>=0;
0.067 +0.0075y[1][8]>=0;
0.067 +0.01y[1][9]>=0;
0.07 +-0.01y[2][1]>=0;
0.07 +-0.0075y[2][2]>=0;
0.07 +-0.005y[2][3]>=0;
0.07 +-0.0025y[2][4]>=0;
0.07 +0y[2][5]>=0;
0.07 +0.0025y[2][6]>=0;
0.07 +0.005y[2][7]>=0;
0.07 +0.0075y[2][8]>=0;
0.07 +0.01y[2][9]>=0;
0.045 +-0.01y[3][1]>=0;
0.045 +-0.0075y[3][2]>=0;
0.045 +-0.005y[3][3]>=0;
0.045 +-0.0025y[3][4]>=0;
0.045 +0y[3][5]>=0;
0.045 +0.0025y[3][6]>=0;
0.045 +0.005y[3][7]>=0;
0.045 +0.0075y[3][8]>=0;
0.045 +0.01y[3][9]>=0;
0.03 +-0.01y[4][1]>=0;
0.03 +-0.0075y[4][2]>=0;
0.03 +-0.005y[4][3]>=0;
0.03 +-0.0025y[4][4]>=0;
0.03 +0y[4][5]>=0;
0.03 +0.0025y[4][6]>=0;
0.03 +0.005y[4][7]>=0;
0.03 +0.0075y[4][8]>=0;
0.03 +0.01y[4][9]>=0;
0.05 +-0.01y[5][1]>=0;
0.05 +-0.0075y[5][2]>=0;
0.05 +-0.005y[5][3]>=0;
0.05 +-0.0025y[5][4]>=0;
0.05 +0y[5][5]>=0;
0.05 +0.0025y[5][6]>=0;
0.05 +0.005y[5][7]>=0;
0.05 +0.0075y[5][8]>=0;
0.05 +0.01y[5][9]>=0;
0.018 +-0.01y[6][1]>=0;
0.018 +-0.0075y[6][2]>=0;
0.018 +-0.005y[6][3]>=0;
0.018 +-0.0025y[6][4]>=0;
0.018 +0y[6][5]>=0;
0.018 +0.0025y[6][6]>=0;
0.018 +0.005y[6][7]>=0;
0.018 +0.0075y[6][8]>=0;
0.018 +0.01y[6][9]>=0;
0.036 +-0.01y[7][1]>=0;
0.036 +-0.0075y[7][2]>=0;
0.036 +-0.005y[7][3]>=0;
0.036 +-0.0025y[7][4]>=0;
0.036 +0y[7][5]>=0;
0.036 +0.0025y[7][6]>=0;
0.036 +0.005y[7][7]>=0;
0.036 +0.0075y[7][8]>=0;
0.036 +0.01y[7][9]>=0;
0.048 +-0.01y[8][1]>=0;
0.048 +-0.0075y[8][2]>=0;
0.048 +-0.005y[8][3]>=0;
0.048 +-0.0025y[8][4]>=0;
0.048 +0y[8][5]>=0;
0.048 +0.0025y[8][6]>=0;
0.048 +0.005y[8][7]>=0;
0.048 +0.0075y[8][8]>=0;
0.048 +0.01y[8][9]>=0;
0.012 +-0.01y[9][1]>=0;
0.012 +-0.0075y[9][2]>=0;
0.012 +-0.005y[9][3]>=0;
0.012 +-0.0025y[9][4]>=0;
0.012 +0y[9][5]>=0;
0.012 +0.0025y[9][6]>=0;
0.012 +0.005y[9][7]>=0;
0.012 +0.0075y[9][8]>=0;
0.012 +0.01y[9][9]>=0;

//Implementa restricao da variacao total no numero de modulos
-2y[1][1] +-1.5y[1][2] +-1y[1][3] +-0.5y[1][4] +0y[1][5] +0.5y[1][6] +1y[1][7] +1.5y[1][8] +2y[1][9] +-2y[2][1] +-1.5y[2][2] +-1y[2][3] +-0.5y[2][4] +0y[2][5] +0.5y[2][6] +1y[2][7] +1.5y[2][8] +2y[2][9] +-2y[3][1] +-1.5y[3][2] +-1y[3][3] +-0.5y[3][4] +0y[3][5] +0.5y[3][6] +1y[3][7] +1.5y[3][8] +2y[3][9] +-2y[4][1] +-1.5y[4][2] +-1y[4][3] +-0.5y[4][4] +0y[4][5] +0.5y[4][6] +1y[4][7] +1.5y[4][8] +2y[4][9] +-2y[5][1] +-1.5y[5][2] +-1y[5][3] +-0.5y[5][4] +0y[5][5] +0.5y[5][6] +1y[5][7] +1.5y[5][8] +2y[5][9] +-2y[6][1] +-1.5y[6][2] +-1y[6][3] +-0.5y[6][4] +0y[6][5] +0.5y[6][6] +1y[6][7] +1.5y[6][8] +2y[6][9] +-2y[7][1] +-1.5y[7][2] +-1y[7][3] +-0.5y[7][4] +0y[7][5] +0.5y[7][6] +1y[7][7] +1.5y[7][8] +2y[7][9] +-2y[8][1] +-1.5y[8][2] +-1y[8][3] +-0.5y[8][4] +0y[8][5] +0.5y[8][6] +1y[8][7] +1.5y[8][8] +2y[8][9] +-2y[9][1] +-1.5y[9][2] +-1y[9][3] +-0.5y[9][4] +0y[9][5] +0.5y[9][6] +1y[9][7] +1.5y[9][8] +2y[9][9]>=0;

-2y[1][1]+-1.5y[1][2]+-1y[1][3]+-0.5y[1][4]+0y[1][5]+0.5y[1][6]+1y[1][7]+1.5y[1][8]+2y[1][9]+-2y[2][1]+-1.5y[2][2]+-1y[2][3]+-0.5y[2][4]+0y[2][5]+0.5y[2][6]+1y[2][7]+1.5y[2][8]+2y[2][9]+-2y[3][1]+-1.5y[3][2]+-1y[3][3]+-0.5y[3][4]+0y[3][5]+0.5y[3][6]+1y[3][7]+1.5y[3][8]+2y[3][9]+-2y[4][1]+-1.5y[4][2]+-1y[4][3]+-0.5y[4][4]+0y[4][5]+0.5y[4][6]+1y[4][7]+1.5y[4][8]+2y[4][9]+-2y[5][1]+-1.5y[5][2]+-1y[5][3]+-0.5y[5][4]+0y[5][5]+0.5y[5][6]+1y[5][7]+1.5y[5][8]+2y[5][9]+-2y[6][1]+-1.5y[6][2]+-1y[6][3]+-0.5y[6][4]+0y[6][5]+0.5y[6][6]+1y[6][7]+1.5y[6][8]+2y[6][9]+-2y[7][1]+-1.5y[7][2]+-1y[7][3]+-0.5y[7][4]+0y[7][5]+0.5y[7][6]+1y[7][7]+1.5y[7][8]+2y[7][9]+-2y[8][1]+-1.5y[8][2]+-1y[8][3]+-0.5y[8][4]+0y[8][5]+0.5y[8][6]+1y[8][7]+1.5y[8][8]+2y[8][9]+-2y[9][1]+-1.5y[9][2]+-1y[9][3]+-0.5y[9][4]+0y[9][5]+0.5y[9][6]+1y[9][7]+1.5y[9][8]+2y[9][9]<=0;

//Implementa as restricoes de variavel binaria
bin y[1][1];
bin y[1][2];
bin y[1][3];
bin y[1][4];
bin y[1][5];
bin y[1][6];
bin y[1][7];
bin y[1][8];
bin y[1][9];
bin y[2][1];
bin y[2][2];
bin y[2][3];
bin y[2][4];
bin y[2][5];
bin y[2][6];
bin y[2][7];
bin y[2][8];
bin y[2][9];
bin y[3][1];
bin y[3][2];
bin y[3][3];
bin y[3][4];
bin y[3][5];
bin y[3][6];
bin y[3][7];
bin y[3][8];
bin y[3][9];
bin y[4][1];
bin y[4][2];
bin y[4][3];
bin y[4][4];
bin y[4][5];
bin y[4][6];
bin y[4][7];
bin y[4][8];
bin y[4][9];
bin y[5][1];
bin y[5][2];
bin y[5][3];
bin y[5][4];
bin y[5][5];
bin y[5][6];
bin y[5][7];
bin y[5][8];
bin y[5][9];
bin y[6][1];
bin y[6][2];
bin y[6][3];
bin y[6][4];
bin y[6][5];
bin y[6][6];
bin y[6][7];
bin y[6][8];
bin y[6][9];
bin y[7][1];
bin y[7][2];
bin y[7][3];
bin y[7][4];
bin y[7][5];
bin y[7][6];
bin y[7][7];
bin y[7][8];
bin y[7][9];
bin y[8][1];
bin y[8][2];
bin y[8][3];
bin y[8][4];
bin y[8][5];
bin y[8][6];
bin y[8][7];
bin y[8][8];
bin y[8][9];
bin y[9][1];
bin y[9][2];
bin y[9][3];
bin y[9][4];
bin y[9][5];
bin y[9][6];
bin y[9][7];
bin y[9][8];
bin y[9][9];
